NAME: tsp30-30
TYPE: TSP
DIMENSION: 30
EDGE_WEIGHT_TYPE: EUC_2D
NODE_COORD_SECTION
0 0 6
1 14 61
2 18 42
3 80 37
4 14 11
5 39 10
6 94 96
7 33 93
8 0 23
9 72 49
10 80 41
11 4 28
12 10 16
13 43 76
14 8 25
15 76 11
16 51 16
17 47 72
18 26 38
19 51 55
20 62 14
21 79 22
22 51 40
23 17 16
24 55 15
25 78 18
26 86 81
27 4 36
28 41 47
29 90 56
EOF